certificates/rado_a5_c189_N37.cnf
c Rad2 upper bound instance: x1 + 5*x2 - x3 = 189, interval [1,37]
p cnf 37 252
1 5 37 0
-1 -5 -37 0
2 6 37 0
-2 -6 -37 0
3 7 37 0
-3 -7 -37 0
4 8 37 0
-4 -8 -37 0
5 9 37 0
-5 -9 -37 0
1 10 36 0
-1 -10 -36 0
6 10 37 0
-6 -10 -37 0
2 11 36 0
-2 -11 -36 0
7 11 37 0
-7 -11 -37 0
3 12 36 0
-3 -12 -36 0
8 12 37 0
-8 -12 -37 0
4 13 36 0
-4 -13 -36 0
9 13 37 0
-9 -13 -37 0
5 14 36 0
-5 -14 -36 0
10 14 37 0
-10 -14 -37 0
1 15 35 0
-1 -15 -35 0
6 15 36 0
-6 -15 -36 0
11 15 37 0
-11 -15 -37 0
2 16 35 0
-2 -16 -35 0
7 16 36 0
-7 -16 -36 0
12 16 37 0
-12 -16 -37 0
3 17 35 0
-3 -17 -35 0
8 17 36 0
-8 -17 -36 0
13 17 37 0
-13 -17 -37 0
4 18 35 0
-4 -18 -35 0
9 18 36 0
-9 -18 -36 0
14 18 37 0
-14 -18 -37 0
5 19 35 0
-5 -19 -35 0
10 19 36 0
-10 -19 -36 0
15 19 37 0
-15 -19 -37 0
1 20 34 0
-1 -20 -34 0
6 20 35 0
-6 -20 -35 0
11 20 36 0
-11 -20 -36 0
16 20 37 0
-16 -20 -37 0
2 21 34 0
-2 -21 -34 0
7 21 35 0
-7 -21 -35 0
12 21 36 0
-12 -21 -36 0
17 21 37 0
-17 -21 -37 0
3 22 34 0
-3 -22 -34 0
8 22 35 0
-8 -22 -35 0
13 22 36 0
-13 -22 -36 0
18 22 37 0
-18 -22 -37 0
4 23 34 0
-4 -23 -34 0
9 23 35 0
-9 -23 -35 0
14 23 36 0
-14 -23 -36 0
19 23 37 0
-19 -23 -37 0
5 24 34 0
-5 -24 -34 0
10 24 35 0
-10 -24 -35 0
15 24 36 0
-15 -24 -36 0
20 24 37 0
-20 -24 -37 0
1 25 33 0
-1 -25 -33 0
6 25 34 0
-6 -25 -34 0
11 25 35 0
-11 -25 -35 0
16 25 36 0
-16 -25 -36 0
21 25 37 0
-21 -25 -37 0
2 26 33 0
-2 -26 -33 0
7 26 34 0
-7 -26 -34 0
12 26 35 0
-12 -26 -35 0
17 26 36 0
-17 -26 -36 0
22 26 37 0
-22 -26 -37 0
3 27 33 0
-3 -27 -33 0
8 27 34 0
-8 -27 -34 0
13 27 35 0
-13 -27 -35 0
18 27 36 0
-18 -27 -36 0
23 27 37 0
-23 -27 -37 0
4 28 33 0
-4 -28 -33 0
9 28 34 0
-9 -28 -34 0
14 28 35 0
-14 -28 -35 0
19 28 36 0
-19 -28 -36 0
24 28 37 0
-24 -28 -37 0
5 29 33 0
-5 -29 -33 0
10 29 34 0
-10 -29 -34 0
15 29 35 0
-15 -29 -35 0
20 29 36 0
-20 -29 -36 0
25 29 37 0
-25 -29 -37 0
1 30 32 0
-1 -30 -32 0
6 30 33 0
-6 -30 -33 0
11 30 34 0
-11 -30 -34 0
16 30 35 0
-16 -30 -35 0
21 30 36 0
-21 -30 -36 0
26 30 37 0
-26 -30 -37 0
2 31 32 0
-2 -31 -32 0
7 31 33 0
-7 -31 -33 0
12 31 34 0
-12 -31 -34 0
17 31 35 0
-17 -31 -35 0
22 31 36 0
-22 -31 -36 0
27 31 37 0
-27 -31 -37 0
3 32 0
-3 -32 0
8 32 33 0
-8 -32 -33 0
13 32 34 0
-13 -32 -34 0
18 32 35 0
-18 -32 -35 0
23 32 36 0
-23 -32 -36 0
28 32 37 0
-28 -32 -37 0
4 32 33 0
-4 -32 -33 0
9 33 0
-9 -33 0
14 33 34 0
-14 -33 -34 0
19 33 35 0
-19 -33 -35 0
24 33 36 0
-24 -33 -36 0
29 33 37 0
-29 -33 -37 0
5 32 34 0
-5 -32 -34 0
10 33 34 0
-10 -33 -34 0
15 34 0
-15 -34 0
20 34 35 0
-20 -34 -35 0
25 34 36 0
-25 -34 -36 0
30 34 37 0
-30 -34 -37 0
1 31 35 0
-1 -31 -35 0
6 32 35 0
-6 -32 -35 0
11 33 35 0
-11 -33 -35 0
16 34 35 0
-16 -34 -35 0
21 35 0
-21 -35 0
26 35 36 0
-26 -35 -36 0
31 35 37 0
-31 -35 -37 0
2 31 36 0
-2 -31 -36 0
7 32 36 0
-7 -32 -36 0
12 33 36 0
-12 -33 -36 0
17 34 36 0
-17 -34 -36 0
22 35 36 0
-22 -35 -36 0
27 36 0
-27 -36 0
32 36 37 0
-32 -36 -37 0
3 31 37 0
-3 -31 -37 0
8 32 37 0
-8 -32 -37 0
13 33 37 0
-13 -33 -37 0
18 34 37 0
-18 -34 -37 0
23 35 37 0
-23 -35 -37 0
28 36 37 0
-28 -36 -37 0
33 37 0
-33 -37 0
