certificates/rado_a5_c189_N37.drat
32 -37 0
-29 -37 0
d -25 -29 -37 0
-37 0
33 0
-9 0
5 0
13 0
-29 0
25 0
-1 0
-32 0
3 0
30 0
28 0
36 0
8 0
-27 0
-12 0
-6 0
-21 0
-4 0
-19 0
-14 0
-24 0
-22 0
-16 0
-34 0
-17 0
23 0
31 0
0
